NAME: Random_60_4
ELLAPSED_TIME_(ms): 0
TOUR_SIZE: 1583.3567
TOUR_SECTION
0
5
11
12
33
18
30
26
43
15
8
32
9
23
28
41
52
42
25
29
14
27
6
49
37
7
3
38
45
56
17
2
55
36
53
24
58
13
10
35
20
51
40
46
48
34
50
47
16
1
4
31
39
44
21
59
19
57
22
54
0
EOF
